% From JaCoP's nonogramRepository/data137.nin
 rows = 20;
 row_rule_len = 4;
 row_rules = array2d(1..rows, 1..row_rule_len, 
[
 0,0,0,1,
 0,3,2,2,
 5,4,5,4,
 0,0,12,12,
 2,7,10,1,
 1,4,10,2,
 0,0,3,9,
 0,2,5,2,
 0,0,4,2,
 0,0,4,2,
 3,1,4,2,
 2,3,3,1,
 0,3,3,3,
 0,2,6,3,
 0,0,2,10,
 0,0,3,11,
 0,0,3,12,
 0,0,3,10,
 0,0,0,7,
 0,0,0,4
]);

 cols = 25;
 col_rule_len = 5;
 col_rules = array2d(1..cols, 1..col_rule_len, 
[
 0,0,4,1,1,
 0,0,4,1,2,
 4,1,1,2,1,
 4,2,1,1,2,
 0,0,5,2,1,
 0,4,1,2,2,
 0,0,3,2,1,
 0,0,4,3,1,
 0,0,0,4,3,
 0,0,0,4,5,
 0,0,0,2,6,
 0,1,4,3,3,
 0,0,6,1,4,
 0,0,0,8,5,
 0,0,0,0,15,
 0,0,6,5,4,
 0,0,5,3,4,
 0,0,0,8,5,
 0,0,0,9,4,
 0,0,5,2,4,
 0,0,0,3,4,
 0,0,0,3,2,
 0,0,0,3,1,
 0,0,0,3,1,
 0,0,0,0,3
]);

